140
160
156
133
191
153
169
129
106
174
162
148
127
110
103
159
112
187
157
153
118
142
101
162
134
176
168
136
107
168
108
127
181
179
158
109
142
167
191
108
172
128
162
143
175
194
158
177
116
115
120
125
110
183
119
105
141
161
135
192
108
184
180
190
122
168
110
142
144
129
146
111
165
164
193
121
100
182
134
142
139
107
102
134
177
189
163
165
167
143
187
184
154
155
191
118
194
184
127
139
